files/upTests/set-of-sets_nested_literals8/0001.eprime
language ESSENCE' 1.0

find x_Explicit_ExplicitVarSize_tuple1:
        matrix indexed by [int(1..1), int(1..2)] of bool
find x_Explicit_ExplicitVarSize_tuple2_ExplicitVarSize_tuple1:
        matrix indexed by [int(1..1), int(1..2), int(1..2)] of bool
find x_Explicit_ExplicitVarSize_tuple2_ExplicitVarSize_tuple2:
        matrix indexed by [int(1..1), int(1..2), int(1..2)] of int(2..3)
such that
    exists v__26 : int(1..1)
        . (forAll v__34 : int(1..2)
               . x_Explicit_ExplicitVarSize_tuple1[v__26, v__34]
                 ->
                 (exists v__52 : int(1..2)
                      . x_Explicit_ExplicitVarSize_tuple2_ExplicitVarSize_tuple1[v__26, v__34, v__52]
                        /\
                        x_Explicit_ExplicitVarSize_tuple2_ExplicitVarSize_tuple2[v__26, v__34, v__52]
                        =
                        2)
                 /\
                 (exists v__53 : int(1..2)
                      . x_Explicit_ExplicitVarSize_tuple2_ExplicitVarSize_tuple1[v__26, v__34, v__53]
                        /\
                        x_Explicit_ExplicitVarSize_tuple2_ExplicitVarSize_tuple2[v__26, v__34, v__53]
                        =
                        3)
                 /\
                 (forAll v__54 : int(1..2)
                      . x_Explicit_ExplicitVarSize_tuple2_ExplicitVarSize_tuple1[v__26, v__34, v__54]
                        ->
                        2
                        =
                        x_Explicit_ExplicitVarSize_tuple2_ExplicitVarSize_tuple2[v__26, v__34, v__54]
                        \/
                        3
                        =
                        x_Explicit_ExplicitVarSize_tuple2_ExplicitVarSize_tuple2[v__26, v__34, v__54])
                 \/
                 (exists v__55 : int(1..2)
                      . x_Explicit_ExplicitVarSize_tuple2_ExplicitVarSize_tuple1[v__26, v__34, v__55]
                        /\
                        x_Explicit_ExplicitVarSize_tuple2_ExplicitVarSize_tuple2[v__26, v__34, v__55]
                        =
                        2)
                 /\
                 (forAll v__56 : int(1..2)
                      . x_Explicit_ExplicitVarSize_tuple2_ExplicitVarSize_tuple1[v__26, v__34, v__56]
                        ->
                        2
                        =
                        x_Explicit_ExplicitVarSize_tuple2_ExplicitVarSize_tuple2[v__26, v__34, v__56]))
          /\
          ((exists v__35 : int(1..2)
                . x_Explicit_ExplicitVarSize_tuple1[v__26, v__35]
                  /\
                  ((forAll v__57 : int(1..2)
                        . x_Explicit_ExplicitVarSize_tuple2_ExplicitVarSize_tuple1[v__26, v__35, v__57]
                          ->
                          2
                          =
                          x_Explicit_ExplicitVarSize_tuple2_ExplicitVarSize_tuple2[v__26, v__35, v__57]
                          \/
                          3
                          =
                          x_Explicit_ExplicitVarSize_tuple2_ExplicitVarSize_tuple2[v__26, v__35, v__57])
                   /\
                   ((exists v__58 : int(1..2)
                         . x_Explicit_ExplicitVarSize_tuple2_ExplicitVarSize_tuple1[v__26, v__35, v__58]
                           /\
                           x_Explicit_ExplicitVarSize_tuple2_ExplicitVarSize_tuple2[v__26, v__35, v__58]
                           =
                           2)
                    /\
                    (exists v__59 : int(1..2)
                         . x_Explicit_ExplicitVarSize_tuple2_ExplicitVarSize_tuple1[v__26, v__35, v__59]
                           /\
                           x_Explicit_ExplicitVarSize_tuple2_ExplicitVarSize_tuple2[v__26, v__35, v__59]
                           =
                           3))))
           /\
           (exists v__36 : int(1..2)
                . x_Explicit_ExplicitVarSize_tuple1[v__26, v__36]
                  /\
                  ((forAll v__60 : int(1..2)
                        . x_Explicit_ExplicitVarSize_tuple2_ExplicitVarSize_tuple1[v__26, v__36, v__60]
                          ->
                          2
                          =
                          x_Explicit_ExplicitVarSize_tuple2_ExplicitVarSize_tuple2[v__26, v__36, v__60])
                   /\
                   (exists v__61 : int(1..2)
                        . x_Explicit_ExplicitVarSize_tuple2_ExplicitVarSize_tuple1[v__26, v__36, v__61]
                          /\
                          x_Explicit_ExplicitVarSize_tuple2_ExplicitVarSize_tuple2[v__26, v__36, v__61]
                          =
                          2)))),
    forAll v__30 : int(1..1)
        . (forAll v__28 : int(1..2)
               . (forAll v__29 : int(1..2)
                      . v__28 < v__29 /\ x_Explicit_ExplicitVarSize_tuple1[v__30, v__28]
                        /\
                        x_Explicit_ExplicitVarSize_tuple1[v__30, v__29]
                        ->
                        !((forAll v__63 : int(1..2)
                               . x_Explicit_ExplicitVarSize_tuple2_ExplicitVarSize_tuple1[v__30, v__28, v__63]
                                 ->
                                 (exists v__62 : int(1..2)
                                      . x_Explicit_ExplicitVarSize_tuple2_ExplicitVarSize_tuple1[v__30, v__29, v__62]
                                        /\
                                        x_Explicit_ExplicitVarSize_tuple2_ExplicitVarSize_tuple2[v__30, v__29, v__62]
                                        =
                                        x_Explicit_ExplicitVarSize_tuple2_ExplicitVarSize_tuple2[v__30, v__28, v__63]))
                          /\
                          (forAll v__65 : int(1..2)
                               . x_Explicit_ExplicitVarSize_tuple2_ExplicitVarSize_tuple1[v__30, v__29, v__65]
                                 ->
                                 (exists v__64 : int(1..2)
                                      . x_Explicit_ExplicitVarSize_tuple2_ExplicitVarSize_tuple1[v__30, v__28, v__64]
                                        /\
                                        x_Explicit_ExplicitVarSize_tuple2_ExplicitVarSize_tuple2[v__30, v__28, v__64]
                                        =
                                        x_Explicit_ExplicitVarSize_tuple2_ExplicitVarSize_tuple2[v__30,
                                                                                                 v__29,
                                                                                                 v__65])))))
          /\
          (forAll v__28 : int(1..1)
               . x_Explicit_ExplicitVarSize_tuple1[v__30, v__28]
                 <=
                 x_Explicit_ExplicitVarSize_tuple1[v__30, v__28 + 1]),
    forAll v__33 : int(1..1)
        . (sum v__32 : int(1..2) . x_Explicit_ExplicitVarSize_tuple1[v__33, v__32])
          >=
          1,
    forAll v__45 : int(1..1)
        . (forAll v__46 : int(1..2)
               . (forAll v__43 : int(1..2)
                      . (forAll v__44 : int(1..2)
                             . v__43 < v__44
                               /\
                               x_Explicit_ExplicitVarSize_tuple2_ExplicitVarSize_tuple1[v__45, v__46, v__43]
                               /\
                               x_Explicit_ExplicitVarSize_tuple2_ExplicitVarSize_tuple1[v__45, v__46, v__44]
                               ->
                               x_Explicit_ExplicitVarSize_tuple2_ExplicitVarSize_tuple2[v__45, v__46, v__43]
                               <
                               x_Explicit_ExplicitVarSize_tuple2_ExplicitVarSize_tuple2[v__45, v__46, v__44]))
                 /\
                 (forAll v__43 : int(1..1)
                      . x_Explicit_ExplicitVarSize_tuple2_ExplicitVarSize_tuple1[v__45, v__46, v__43]
                        <=
                        x_Explicit_ExplicitVarSize_tuple2_ExplicitVarSize_tuple1[v__45,
                                                                                 v__46,
                                                                                 v__43 + 1])),
    forAll v__50 : int(1..1)
        . (forAll v__51 : int(1..2)
               . (sum v__49 : int(1..2)
                      . x_Explicit_ExplicitVarSize_tuple2_ExplicitVarSize_tuple1[v__50, v__51, v__49])
                 >=
                 1)
