files/upTests/set-of-sets_nested_literals8/0001.eprime.solution
language ESSENCE' 1.0
$ minion Nodes: 4
$ minion TotalTime: 0.002437
$ Savile Row TotalTime: 0.477
letting x_Explicit_ExplicitVarSize_tuple1 be [[1, 1]]
letting x_Explicit_ExplicitVarSize_tuple2_ExplicitVarSize_tuple1 be [[[0, 1], 
[1, 1]]]
letting x_Explicit_ExplicitVarSize_tuple2_ExplicitVarSize_tuple2 be [[[2, 2], 
[2, 3]]]
